NAME: tsp5_27
COMMENT: 5-tsp problem (Padberg/Rinaldi)
TYPE: TSP
DIMENSION: 5
EDGE_WEIGHT_TYPE : EUC_2D
NODE_COORD_SECTION
1.00 29.70 23.81
2.00 33.87 20.04
3.00 12.34 30.22
4.00 0.73 23.29
5.00 35.96 0.36
